
Gurobi 8.1.0 (mac64, Python) logging started Sat Apr  6 18:02:13 2019

Academic license - for non-commercial use only
Optimize a model with 20076 rows, 19729 columns and 78916 nonzeros
Variable types: 0 continuous, 19729 integer (0 binary)
Coefficient statistics:
  Matrix range     [1e+00, 1e+00]
  Objective range  [1e+00, 1e+01]
  Bounds range     [1e+00, 1e+00]
  RHS range        [1e+00, 1e+01]
Presolve removed 19923 rows and 19333 columns
Presolve time: 0.04s
Presolved: 153 rows, 396 columns, 792 nonzeros
Variable types: 0 continuous, 396 integer (396 binary)
Found heuristic solution: objective 273.0000000

Root relaxation: objective 1.910000e+02, 173 iterations, 0.00 seconds

    Nodes    |    Current Node    |     Objective Bounds      |     Work
 Expl Unexpl |  Obj  Depth IntInf | Incumbent    BestBd   Gap | It/Node Time

*    0     0               0     191.0000000  191.00000  0.00%     -    0s

Explored 0 nodes (173 simplex iterations) in 0.06 seconds
Thread count was 8 (of 8 available processors)

Solution count 2: 191 273 

Optimal solution found (tolerance 1.00e-04)
Best objective 1.910000000000e+02, best bound 1.910000000000e+02, gap 0.0000%

Gurobi 8.1.0 (mac64, Python) logging started Sat Apr  6 18:06:12 2019

Academic license - for non-commercial use only
Optimize a model with 20076 rows, 19729 columns and 78916 nonzeros
Variable types: 0 continuous, 19729 integer (0 binary)
Coefficient statistics:
  Matrix range     [1e+00, 1e+00]
  Objective range  [1e+00, 1e+01]
  Bounds range     [1e+00, 1e+00]
  RHS range        [1e+00, 1e+01]
Presolve removed 19923 rows and 19333 columns
Presolve time: 0.04s
Presolved: 153 rows, 396 columns, 792 nonzeros
Variable types: 0 continuous, 396 integer (396 binary)
Found heuristic solution: objective 273.0000000

Root relaxation: objective 1.910000e+02, 173 iterations, 0.00 seconds

    Nodes    |    Current Node    |     Objective Bounds      |     Work
 Expl Unexpl |  Obj  Depth IntInf | Incumbent    BestBd   Gap | It/Node Time

*    0     0               0     191.0000000  191.00000  0.00%     -    0s

Explored 0 nodes (173 simplex iterations) in 0.05 seconds
Thread count was 8 (of 8 available processors)

Solution count 2: 191 273 

Optimal solution found (tolerance 1.00e-04)
Best objective 1.910000000000e+02, best bound 1.910000000000e+02, gap 0.0000%

Gurobi 8.1.0 (mac64, Python) logging started Sat Apr  6 18:07:33 2019

Academic license - for non-commercial use only
Optimize a model with 20076 rows, 19729 columns and 78916 nonzeros
Variable types: 0 continuous, 19729 integer (0 binary)
Coefficient statistics:
  Matrix range     [1e+00, 1e+00]
  Objective range  [1e+00, 1e+01]
  Bounds range     [1e+00, 1e+00]
  RHS range        [1e+00, 1e+01]
Presolve removed 19923 rows and 19333 columns
Presolve time: 0.04s
Presolved: 153 rows, 396 columns, 792 nonzeros
Variable types: 0 continuous, 396 integer (396 binary)
Found heuristic solution: objective 273.0000000

Root relaxation: objective 1.910000e+02, 173 iterations, 0.00 seconds

    Nodes    |    Current Node    |     Objective Bounds      |     Work
 Expl Unexpl |  Obj  Depth IntInf | Incumbent    BestBd   Gap | It/Node Time

*    0     0               0     191.0000000  191.00000  0.00%     -    0s

Explored 0 nodes (173 simplex iterations) in 0.06 seconds
Thread count was 8 (of 8 available processors)

Solution count 2: 191 273 

Optimal solution found (tolerance 1.00e-04)
Best objective 1.910000000000e+02, best bound 1.910000000000e+02, gap 0.0000%

Gurobi 8.1.0 (mac64, Python) logging started Sat Apr  6 18:08:48 2019

Academic license - for non-commercial use only
Optimize a model with 20076 rows, 19729 columns and 78916 nonzeros
Variable types: 0 continuous, 19729 integer (0 binary)
Coefficient statistics:
  Matrix range     [1e+00, 1e+00]
  Objective range  [1e+00, 1e+01]
  Bounds range     [1e+00, 1e+00]
  RHS range        [1e+00, 1e+01]
Presolve removed 19918 rows and 19325 columns
Presolve time: 0.04s
Presolved: 158 rows, 404 columns, 898 nonzeros
Variable types: 0 continuous, 404 integer (404 binary)
Found heuristic solution: objective 281.0000000

Root relaxation: objective 1.950000e+02, 170 iterations, 0.00 seconds

    Nodes    |    Current Node    |     Objective Bounds      |     Work
 Expl Unexpl |  Obj  Depth IntInf | Incumbent    BestBd   Gap | It/Node Time

*    0     0               0     195.0000000  195.00000  0.00%     -    0s

Explored 0 nodes (170 simplex iterations) in 0.05 seconds
Thread count was 8 (of 8 available processors)

Solution count 2: 195 281 

Optimal solution found (tolerance 1.00e-04)
Best objective 1.950000000000e+02, best bound 1.950000000000e+02, gap 0.0000%

Gurobi 8.1.0 (mac64, Python) logging started Sat Apr  6 18:23:24 2019

Academic license - for non-commercial use only
Optimize a model with 20076 rows, 19729 columns and 78916 nonzeros
Variable types: 0 continuous, 19729 integer (0 binary)
Coefficient statistics:
  Matrix range     [1e+00, 1e+00]
  Objective range  [1e+00, 1e+01]
  Bounds range     [1e+00, 1e+00]
  RHS range        [1e+00, 1e+01]
Presolve removed 19923 rows and 19333 columns
Presolve time: 0.04s
Presolved: 153 rows, 396 columns, 792 nonzeros
Variable types: 0 continuous, 396 integer (396 binary)
Found heuristic solution: objective 273.0000000

Root relaxation: objective 1.910000e+02, 173 iterations, 0.00 seconds

    Nodes    |    Current Node    |     Objective Bounds      |     Work
 Expl Unexpl |  Obj  Depth IntInf | Incumbent    BestBd   Gap | It/Node Time

*    0     0               0     191.0000000  191.00000  0.00%     -    0s

Explored 0 nodes (173 simplex iterations) in 0.05 seconds
Thread count was 8 (of 8 available processors)

Solution count 2: 191 273 

Optimal solution found (tolerance 1.00e-04)
Best objective 1.910000000000e+02, best bound 1.910000000000e+02, gap 0.0000%

Gurobi 8.1.0 (mac64, Python) logging started Sat Apr  6 18:32:13 2019

Academic license - for non-commercial use only
Optimize a model with 20076 rows, 19729 columns and 78916 nonzeros
Variable types: 0 continuous, 19729 integer (0 binary)
Coefficient statistics:
  Matrix range     [1e+00, 1e+00]
  Objective range  [1e+00, 1e+01]
  Bounds range     [1e+00, 1e+00]
  RHS range        [1e+00, 1e+01]
Presolve removed 19923 rows and 19333 columns
Presolve time: 0.05s
Presolved: 153 rows, 396 columns, 792 nonzeros
Variable types: 0 continuous, 396 integer (396 binary)
Found heuristic solution: objective 273.0000000

Root relaxation: objective 1.910000e+02, 173 iterations, 0.00 seconds

    Nodes    |    Current Node    |     Objective Bounds      |     Work
 Expl Unexpl |  Obj  Depth IntInf | Incumbent    BestBd   Gap | It/Node Time

*    0     0               0     191.0000000  191.00000  0.00%     -    0s

Explored 0 nodes (173 simplex iterations) in 0.07 seconds
Thread count was 8 (of 8 available processors)

Solution count 2: 191 273 

Optimal solution found (tolerance 1.00e-04)
Best objective 1.910000000000e+02, best bound 1.910000000000e+02, gap 0.0000%

Gurobi 8.1.0 (mac64, Python) logging started Sat Apr  6 18:35:39 2019

Academic license - for non-commercial use only
Optimize a model with 20076 rows, 19729 columns and 78916 nonzeros
Variable types: 0 continuous, 19729 integer (0 binary)
Coefficient statistics:
  Matrix range     [1e+00, 1e+00]
  Objective range  [1e+00, 1e+01]
  Bounds range     [1e+00, 1e+00]
  RHS range        [1e+00, 1e+01]
Presolve removed 19923 rows and 19333 columns
Presolve time: 0.04s
Presolved: 153 rows, 396 columns, 792 nonzeros
Variable types: 0 continuous, 396 integer (396 binary)
Found heuristic solution: objective 273.0000000

Root relaxation: objective 1.910000e+02, 173 iterations, 0.00 seconds

    Nodes    |    Current Node    |     Objective Bounds      |     Work
 Expl Unexpl |  Obj  Depth IntInf | Incumbent    BestBd   Gap | It/Node Time

*    0     0               0     191.0000000  191.00000  0.00%     -    0s

Explored 0 nodes (173 simplex iterations) in 0.05 seconds
Thread count was 8 (of 8 available processors)

Solution count 2: 191 273 

Optimal solution found (tolerance 1.00e-04)
Best objective 1.910000000000e+02, best bound 1.910000000000e+02, gap 0.0000%

Gurobi 8.1.0 (mac64, Python) logging started Sat Apr  6 18:36:57 2019

Academic license - for non-commercial use only
Optimize a model with 20076 rows, 19729 columns and 78916 nonzeros
Variable types: 0 continuous, 19729 integer (0 binary)
Coefficient statistics:
  Matrix range     [1e+00, 1e+00]
  Objective range  [1e+00, 1e+01]
  Bounds range     [1e+00, 1e+00]
  RHS range        [1e+00, 1e+01]
Presolve removed 19923 rows and 19333 columns
Presolve time: 0.04s
Presolved: 153 rows, 396 columns, 792 nonzeros
Variable types: 0 continuous, 396 integer (396 binary)
Found heuristic solution: objective 273.0000000

Root relaxation: objective 1.910000e+02, 173 iterations, 0.00 seconds

    Nodes    |    Current Node    |     Objective Bounds      |     Work
 Expl Unexpl |  Obj  Depth IntInf | Incumbent    BestBd   Gap | It/Node Time

*    0     0               0     191.0000000  191.00000  0.00%     -    0s

Explored 0 nodes (173 simplex iterations) in 0.06 seconds
Thread count was 8 (of 8 available processors)

Solution count 2: 191 273 

Optimal solution found (tolerance 1.00e-04)
Best objective 1.910000000000e+02, best bound 1.910000000000e+02, gap 0.0000%

Gurobi 8.1.0 (mac64, Python) logging started Sat Apr  6 18:40:21 2019

Academic license - for non-commercial use only
Optimize a model with 20076 rows, 19729 columns and 78916 nonzeros
Variable types: 0 continuous, 19729 integer (0 binary)
Coefficient statistics:
  Matrix range     [1e+00, 1e+00]
  Objective range  [1e+00, 1e+01]
  Bounds range     [1e+00, 1e+00]
  RHS range        [1e+00, 1e+01]
Presolve removed 19923 rows and 19333 columns
Presolve time: 0.03s
Presolved: 153 rows, 396 columns, 792 nonzeros
Variable types: 0 continuous, 396 integer (396 binary)
Found heuristic solution: objective 273.0000000

Root relaxation: objective 1.910000e+02, 173 iterations, 0.00 seconds

    Nodes    |    Current Node    |     Objective Bounds      |     Work
 Expl Unexpl |  Obj  Depth IntInf | Incumbent    BestBd   Gap | It/Node Time

*    0     0               0     191.0000000  191.00000  0.00%     -    0s

Explored 0 nodes (173 simplex iterations) in 0.05 seconds
Thread count was 8 (of 8 available processors)

Solution count 2: 191 273 

Optimal solution found (tolerance 1.00e-04)
Best objective 1.910000000000e+02, best bound 1.910000000000e+02, gap 0.0000%

Gurobi 8.1.0 (mac64, Python) logging started Sat Apr  6 18:41:37 2019

Academic license - for non-commercial use only
Optimize a model with 20076 rows, 19729 columns and 78916 nonzeros
Variable types: 0 continuous, 19729 integer (0 binary)
Coefficient statistics:
  Matrix range     [1e+00, 1e+00]
  Objective range  [1e+00, 1e+01]
  Bounds range     [1e+00, 1e+00]
  RHS range        [1e+00, 1e+01]
Presolve removed 19923 rows and 19333 columns
Presolve time: 0.03s
Presolved: 153 rows, 396 columns, 792 nonzeros
Variable types: 0 continuous, 396 integer (396 binary)
Found heuristic solution: objective 273.0000000

Root relaxation: objective 1.910000e+02, 173 iterations, 0.00 seconds

    Nodes    |    Current Node    |     Objective Bounds      |     Work
 Expl Unexpl |  Obj  Depth IntInf | Incumbent    BestBd   Gap | It/Node Time

*    0     0               0     191.0000000  191.00000  0.00%     -    0s

Explored 0 nodes (173 simplex iterations) in 0.05 seconds
Thread count was 8 (of 8 available processors)

Solution count 2: 191 273 

Optimal solution found (tolerance 1.00e-04)
Best objective 1.910000000000e+02, best bound 1.910000000000e+02, gap 0.0000%

Gurobi 8.1.0 (mac64, Python) logging started Sat Apr  6 18:43:44 2019

Academic license - for non-commercial use only
Optimize a model with 20076 rows, 19729 columns and 78916 nonzeros
Variable types: 0 continuous, 19729 integer (0 binary)
Coefficient statistics:
  Matrix range     [1e+00, 1e+00]
  Objective range  [1e+00, 1e+01]
  Bounds range     [1e+00, 1e+00]
  RHS range        [1e+00, 1e+01]
Presolve removed 19923 rows and 19333 columns
Presolve time: 0.03s
Presolved: 153 rows, 396 columns, 792 nonzeros
Variable types: 0 continuous, 396 integer (396 binary)
Found heuristic solution: objective 273.0000000

Root relaxation: objective 1.910000e+02, 173 iterations, 0.00 seconds

    Nodes    |    Current Node    |     Objective Bounds      |     Work
 Expl Unexpl |  Obj  Depth IntInf | Incumbent    BestBd   Gap | It/Node Time

*    0     0               0     191.0000000  191.00000  0.00%     -    0s

Explored 0 nodes (173 simplex iterations) in 0.05 seconds
Thread count was 8 (of 8 available processors)

Solution count 2: 191 273 

Optimal solution found (tolerance 1.00e-04)
Best objective 1.910000000000e+02, best bound 1.910000000000e+02, gap 0.0000%

Gurobi 8.1.0 (mac64, Python) logging started Sat Apr  6 18:45:32 2019

Academic license - for non-commercial use only
Optimize a model with 20076 rows, 19729 columns and 78916 nonzeros
Variable types: 0 continuous, 19729 integer (0 binary)
Coefficient statistics:
  Matrix range     [1e+00, 1e+00]
  Objective range  [1e+00, 1e+01]
  Bounds range     [1e+00, 1e+00]
  RHS range        [1e+00, 1e+01]
Presolve removed 19923 rows and 19333 columns
Presolve time: 0.04s
Presolved: 153 rows, 396 columns, 792 nonzeros
Variable types: 0 continuous, 396 integer (396 binary)
Found heuristic solution: objective 273.0000000

Root relaxation: objective 1.910000e+02, 173 iterations, 0.00 seconds

    Nodes    |    Current Node    |     Objective Bounds      |     Work
 Expl Unexpl |  Obj  Depth IntInf | Incumbent    BestBd   Gap | It/Node Time

*    0     0               0     191.0000000  191.00000  0.00%     -    0s

Explored 0 nodes (173 simplex iterations) in 0.06 seconds
Thread count was 8 (of 8 available processors)

Solution count 2: 191 273 

Optimal solution found (tolerance 1.00e-04)
Best objective 1.910000000000e+02, best bound 1.910000000000e+02, gap 0.0000%

Gurobi 8.1.0 (mac64, Python) logging started Sat Apr  6 18:49:00 2019

Academic license - for non-commercial use only
Optimize a model with 20076 rows, 19729 columns and 78916 nonzeros
Variable types: 0 continuous, 19729 integer (0 binary)
Coefficient statistics:
  Matrix range     [1e+00, 1e+00]
  Objective range  [1e+00, 1e+01]
  Bounds range     [1e+00, 1e+00]
  RHS range        [1e+00, 1e+01]
Presolve removed 19923 rows and 19333 columns
Presolve time: 0.04s
Presolved: 153 rows, 396 columns, 792 nonzeros
Variable types: 0 continuous, 396 integer (396 binary)
Found heuristic solution: objective 273.0000000

Root relaxation: objective 1.910000e+02, 173 iterations, 0.00 seconds

    Nodes    |    Current Node    |     Objective Bounds      |     Work
 Expl Unexpl |  Obj  Depth IntInf | Incumbent    BestBd   Gap | It/Node Time

*    0     0               0     191.0000000  191.00000  0.00%     -    0s

Explored 0 nodes (173 simplex iterations) in 0.06 seconds
Thread count was 8 (of 8 available processors)

Solution count 2: 191 273 

Optimal solution found (tolerance 1.00e-04)
Best objective 1.910000000000e+02, best bound 1.910000000000e+02, gap 0.0000%

Gurobi 8.1.0 (mac64, Python) logging started Sat Apr  6 18:50:00 2019

Academic license - for non-commercial use only
Optimize a model with 20076 rows, 19729 columns and 78916 nonzeros
Variable types: 0 continuous, 19729 integer (0 binary)
Coefficient statistics:
  Matrix range     [1e+00, 1e+00]
  Objective range  [1e+00, 1e+01]
  Bounds range     [1e+00, 1e+00]
  RHS range        [1e+00, 1e+01]
Presolve removed 19923 rows and 19333 columns
Presolve time: 0.04s
Presolved: 153 rows, 396 columns, 792 nonzeros
Variable types: 0 continuous, 396 integer (396 binary)
Found heuristic solution: objective 273.0000000

Root relaxation: objective 1.910000e+02, 173 iterations, 0.00 seconds

    Nodes    |    Current Node    |     Objective Bounds      |     Work
 Expl Unexpl |  Obj  Depth IntInf | Incumbent    BestBd   Gap | It/Node Time

*    0     0               0     191.0000000  191.00000  0.00%     -    0s

Explored 0 nodes (173 simplex iterations) in 0.05 seconds
Thread count was 8 (of 8 available processors)

Solution count 2: 191 273 

Optimal solution found (tolerance 1.00e-04)
Best objective 1.910000000000e+02, best bound 1.910000000000e+02, gap 0.0000%

Gurobi 8.1.0 (mac64, Python) logging started Sat Apr  6 18:51:02 2019

Academic license - for non-commercial use only
Optimize a model with 20076 rows, 19729 columns and 78916 nonzeros
Variable types: 0 continuous, 19729 integer (0 binary)
Coefficient statistics:
  Matrix range     [1e+00, 1e+00]
  Objective range  [1e+00, 1e+01]
  Bounds range     [1e+00, 1e+00]
  RHS range        [1e+00, 1e+01]
Presolve removed 19923 rows and 19333 columns
Presolve time: 0.04s
Presolved: 153 rows, 396 columns, 792 nonzeros
Variable types: 0 continuous, 396 integer (396 binary)
Found heuristic solution: objective 273.0000000

Root relaxation: objective 1.910000e+02, 173 iterations, 0.00 seconds

    Nodes    |    Current Node    |     Objective Bounds      |     Work
 Expl Unexpl |  Obj  Depth IntInf | Incumbent    BestBd   Gap | It/Node Time

*    0     0               0     191.0000000  191.00000  0.00%     -    0s

Explored 0 nodes (173 simplex iterations) in 0.05 seconds
Thread count was 8 (of 8 available processors)

Solution count 2: 191 273 

Optimal solution found (tolerance 1.00e-04)
Best objective 1.910000000000e+02, best bound 1.910000000000e+02, gap 0.0000%

Gurobi 8.1.0 (mac64, Python) logging started Sat Apr  6 18:53:22 2019

Academic license - for non-commercial use only
Optimize a model with 20076 rows, 19729 columns and 78916 nonzeros
Variable types: 0 continuous, 19729 integer (0 binary)
Coefficient statistics:
  Matrix range     [1e+00, 1e+00]
  Objective range  [1e+00, 1e+01]
  Bounds range     [1e+00, 1e+00]
  RHS range        [1e+00, 1e+01]
Presolve removed 19923 rows and 19333 columns
Presolve time: 0.03s
Presolved: 153 rows, 396 columns, 792 nonzeros
Variable types: 0 continuous, 396 integer (396 binary)
Found heuristic solution: objective 273.0000000

Root relaxation: objective 1.910000e+02, 173 iterations, 0.00 seconds

    Nodes    |    Current Node    |     Objective Bounds      |     Work
 Expl Unexpl |  Obj  Depth IntInf | Incumbent    BestBd   Gap | It/Node Time

*    0     0               0     191.0000000  191.00000  0.00%     -    0s

Explored 0 nodes (173 simplex iterations) in 0.05 seconds
Thread count was 8 (of 8 available processors)

Solution count 2: 191 273 

Optimal solution found (tolerance 1.00e-04)
Best objective 1.910000000000e+02, best bound 1.910000000000e+02, gap 0.0000%

Gurobi 8.1.0 (mac64, Python) logging started Sat Apr  6 18:55:46 2019

Academic license - for non-commercial use only
Optimize a model with 20076 rows, 19729 columns and 78916 nonzeros
Variable types: 0 continuous, 19729 integer (0 binary)
Coefficient statistics:
  Matrix range     [1e+00, 1e+00]
  Objective range  [1e+00, 1e+01]
  Bounds range     [1e+00, 1e+00]
  RHS range        [1e+00, 1e+01]
Presolve removed 19923 rows and 19333 columns
Presolve time: 0.04s
Presolved: 153 rows, 396 columns, 792 nonzeros
Variable types: 0 continuous, 396 integer (396 binary)
Found heuristic solution: objective 273.0000000

Root relaxation: objective 1.910000e+02, 173 iterations, 0.00 seconds

    Nodes    |    Current Node    |     Objective Bounds      |     Work
 Expl Unexpl |  Obj  Depth IntInf | Incumbent    BestBd   Gap | It/Node Time

*    0     0               0     191.0000000  191.00000  0.00%     -    0s

Explored 0 nodes (173 simplex iterations) in 0.06 seconds
Thread count was 8 (of 8 available processors)

Solution count 2: 191 273 

Optimal solution found (tolerance 1.00e-04)
Best objective 1.910000000000e+02, best bound 1.910000000000e+02, gap 0.0000%

Gurobi 8.1.0 (mac64, Python) logging started Sat Apr  6 18:57:22 2019

Academic license - for non-commercial use only
Optimize a model with 20076 rows, 19729 columns and 78916 nonzeros
Variable types: 0 continuous, 19729 integer (0 binary)
Coefficient statistics:
  Matrix range     [1e+00, 1e+00]
  Objective range  [1e+00, 1e+01]
  Bounds range     [1e+00, 1e+00]
  RHS range        [1e+00, 1e+01]
Presolve removed 19923 rows and 19333 columns
Presolve time: 0.04s
Presolved: 153 rows, 396 columns, 792 nonzeros
Variable types: 0 continuous, 396 integer (396 binary)
Found heuristic solution: objective 273.0000000

Root relaxation: objective 1.910000e+02, 173 iterations, 0.00 seconds

    Nodes    |    Current Node    |     Objective Bounds      |     Work
 Expl Unexpl |  Obj  Depth IntInf | Incumbent    BestBd   Gap | It/Node Time

*    0     0               0     191.0000000  191.00000  0.00%     -    0s

Explored 0 nodes (173 simplex iterations) in 0.05 seconds
Thread count was 8 (of 8 available processors)

Solution count 2: 191 273 

Optimal solution found (tolerance 1.00e-04)
Best objective 1.910000000000e+02, best bound 1.910000000000e+02, gap 0.0000%

Gurobi 8.1.0 (mac64, Python) logging started Sat Apr  6 19:02:25 2019

Academic license - for non-commercial use only
Optimize a model with 20076 rows, 19729 columns and 78916 nonzeros
Variable types: 0 continuous, 19729 integer (0 binary)
Coefficient statistics:
  Matrix range     [1e+00, 1e+00]
  Objective range  [1e+00, 1e+01]
  Bounds range     [1e+00, 1e+00]
  RHS range        [1e+00, 1e+01]
Presolve removed 19923 rows and 19333 columns
Presolve time: 0.04s
Presolved: 153 rows, 396 columns, 792 nonzeros
Variable types: 0 continuous, 396 integer (396 binary)
Found heuristic solution: objective 273.0000000

Root relaxation: objective 1.910000e+02, 173 iterations, 0.00 seconds

    Nodes    |    Current Node    |     Objective Bounds      |     Work
 Expl Unexpl |  Obj  Depth IntInf | Incumbent    BestBd   Gap | It/Node Time

*    0     0               0     191.0000000  191.00000  0.00%     -    0s

Explored 0 nodes (173 simplex iterations) in 0.06 seconds
Thread count was 8 (of 8 available processors)

Solution count 2: 191 273 

Optimal solution found (tolerance 1.00e-04)
Best objective 1.910000000000e+02, best bound 1.910000000000e+02, gap 0.0000%

Gurobi 8.1.0 (mac64, Python) logging started Sat Apr  6 19:06:36 2019

Academic license - for non-commercial use only
Optimize a model with 20076 rows, 19729 columns and 78916 nonzeros
Variable types: 0 continuous, 19729 integer (0 binary)
Coefficient statistics:
  Matrix range     [1e+00, 1e+00]
  Objective range  [1e+00, 1e+01]
  Bounds range     [1e+00, 1e+00]
  RHS range        [1e+00, 1e+01]
Presolve removed 19923 rows and 19333 columns
Presolve time: 0.04s
Presolved: 153 rows, 396 columns, 792 nonzeros
Variable types: 0 continuous, 396 integer (396 binary)
Found heuristic solution: objective 273.0000000

Root relaxation: objective 1.910000e+02, 173 iterations, 0.00 seconds

    Nodes    |    Current Node    |     Objective Bounds      |     Work
 Expl Unexpl |  Obj  Depth IntInf | Incumbent    BestBd   Gap | It/Node Time

*    0     0               0     191.0000000  191.00000  0.00%     -    0s

Explored 0 nodes (173 simplex iterations) in 0.07 seconds
Thread count was 8 (of 8 available processors)

Solution count 2: 191 273 

Optimal solution found (tolerance 1.00e-04)
Best objective 1.910000000000e+02, best bound 1.910000000000e+02, gap 0.0000%

Gurobi 8.1.0 (mac64, Python) logging started Sat Apr  6 19:07:56 2019

Academic license - for non-commercial use only
Optimize a model with 20076 rows, 19729 columns and 78916 nonzeros
Variable types: 0 continuous, 19729 integer (0 binary)
Coefficient statistics:
  Matrix range     [1e+00, 1e+00]
  Objective range  [1e+00, 1e+01]
  Bounds range     [1e+00, 1e+00]
  RHS range        [1e+00, 1e+01]
Presolve removed 19923 rows and 19333 columns
Presolve time: 0.04s
Presolved: 153 rows, 396 columns, 792 nonzeros
Variable types: 0 continuous, 396 integer (396 binary)
Found heuristic solution: objective 273.0000000

Root relaxation: objective 1.910000e+02, 173 iterations, 0.00 seconds

    Nodes    |    Current Node    |     Objective Bounds      |     Work
 Expl Unexpl |  Obj  Depth IntInf | Incumbent    BestBd   Gap | It/Node Time

*    0     0               0     191.0000000  191.00000  0.00%     -    0s

Explored 0 nodes (173 simplex iterations) in 0.05 seconds
Thread count was 8 (of 8 available processors)

Solution count 2: 191 273 

Optimal solution found (tolerance 1.00e-04)
Best objective 1.910000000000e+02, best bound 1.910000000000e+02, gap 0.0000%

Gurobi 8.1.0 (mac64, Python) logging started Sat Apr  6 19:09:08 2019

Academic license - for non-commercial use only
Optimize a model with 20076 rows, 19729 columns and 78916 nonzeros
Variable types: 0 continuous, 19729 integer (0 binary)
Coefficient statistics:
  Matrix range     [1e+00, 1e+00]
  Objective range  [1e+00, 1e+01]
  Bounds range     [1e+00, 1e+00]
  RHS range        [1e+00, 1e+01]
Presolve removed 19923 rows and 19333 columns
Presolve time: 0.04s
Presolved: 153 rows, 396 columns, 792 nonzeros
Variable types: 0 continuous, 396 integer (396 binary)
Found heuristic solution: objective 273.0000000

Root relaxation: objective 1.910000e+02, 173 iterations, 0.00 seconds

    Nodes    |    Current Node    |     Objective Bounds      |     Work
 Expl Unexpl |  Obj  Depth IntInf | Incumbent    BestBd   Gap | It/Node Time

*    0     0               0     191.0000000  191.00000  0.00%     -    0s

Explored 0 nodes (173 simplex iterations) in 0.06 seconds
Thread count was 8 (of 8 available processors)

Solution count 2: 191 273 

Optimal solution found (tolerance 1.00e-04)
Best objective 1.910000000000e+02, best bound 1.910000000000e+02, gap 0.0000%

Gurobi 8.1.0 (mac64, Python) logging started Sat Apr  6 19:11:26 2019

Academic license - for non-commercial use only
Optimize a model with 20076 rows, 19729 columns and 78916 nonzeros
Variable types: 0 continuous, 19729 integer (0 binary)
Coefficient statistics:
  Matrix range     [1e+00, 1e+00]
  Objective range  [1e+00, 1e+01]
  Bounds range     [1e+00, 1e+00]
  RHS range        [1e+00, 1e+01]
Presolve removed 19923 rows and 19333 columns
Presolve time: 0.04s
Presolved: 153 rows, 396 columns, 792 nonzeros
Variable types: 0 continuous, 396 integer (396 binary)
Found heuristic solution: objective 273.0000000

Root relaxation: objective 1.910000e+02, 173 iterations, 0.00 seconds

    Nodes    |    Current Node    |     Objective Bounds      |     Work
 Expl Unexpl |  Obj  Depth IntInf | Incumbent    BestBd   Gap | It/Node Time

*    0     0               0     191.0000000  191.00000  0.00%     -    0s

Explored 0 nodes (173 simplex iterations) in 0.05 seconds
Thread count was 8 (of 8 available processors)

Solution count 2: 191 273 

Optimal solution found (tolerance 1.00e-04)
Best objective 1.910000000000e+02, best bound 1.910000000000e+02, gap 0.0000%

Gurobi 8.1.0 (mac64, Python) logging started Sat Apr  6 20:49:37 2019

Academic license - for non-commercial use only
Optimize a model with 20076 rows, 19729 columns and 78916 nonzeros
Variable types: 0 continuous, 19729 integer (0 binary)
Coefficient statistics:
  Matrix range     [1e+00, 1e+00]
  Objective range  [1e+00, 1e+01]
  Bounds range     [1e+00, 1e+00]
  RHS range        [1e+00, 1e+01]
Presolve removed 19918 rows and 19325 columns
Presolve time: 0.08s
Presolved: 158 rows, 404 columns, 898 nonzeros
Variable types: 0 continuous, 404 integer (404 binary)
Found heuristic solution: objective 281.0000000

Root relaxation: objective 1.950000e+02, 170 iterations, 0.00 seconds

    Nodes    |    Current Node    |     Objective Bounds      |     Work
 Expl Unexpl |  Obj  Depth IntInf | Incumbent    BestBd   Gap | It/Node Time

*    0     0               0     195.0000000  195.00000  0.00%     -    0s

Explored 0 nodes (170 simplex iterations) in 0.09 seconds
Thread count was 8 (of 8 available processors)

Solution count 2: 195 281 

Optimal solution found (tolerance 1.00e-04)
Best objective 1.950000000000e+02, best bound 1.950000000000e+02, gap 0.0000%

Gurobi 8.1.0 (mac64, Python) logging started Sat Apr  6 21:12:31 2019

Academic license - for non-commercial use only
Optimize a model with 20076 rows, 19729 columns and 78916 nonzeros
Variable types: 0 continuous, 19729 integer (0 binary)
Coefficient statistics:
  Matrix range     [1e+00, 1e+00]
  Objective range  [1e+00, 1e+01]
  Bounds range     [1e+00, 1e+00]
  RHS range        [1e+00, 1e+01]
Presolve removed 19918 rows and 19325 columns
Presolve time: 0.04s
Presolved: 158 rows, 404 columns, 898 nonzeros
Variable types: 0 continuous, 404 integer (404 binary)
Found heuristic solution: objective 281.0000000

Root relaxation: objective 1.950000e+02, 170 iterations, 0.00 seconds

    Nodes    |    Current Node    |     Objective Bounds      |     Work
 Expl Unexpl |  Obj  Depth IntInf | Incumbent    BestBd   Gap | It/Node Time

*    0     0               0     195.0000000  195.00000  0.00%     -    0s

Explored 0 nodes (170 simplex iterations) in 0.05 seconds
Thread count was 8 (of 8 available processors)

Solution count 2: 195 281 

Optimal solution found (tolerance 1.00e-04)
Best objective 1.950000000000e+02, best bound 1.950000000000e+02, gap 0.0000%

Gurobi 8.1.0 (mac64, Python) logging started Sat Apr  6 21:20:57 2019

Academic license - for non-commercial use only
Optimize a model with 20076 rows, 19729 columns and 78916 nonzeros
Variable types: 0 continuous, 19729 integer (0 binary)
Coefficient statistics:
  Matrix range     [1e+00, 1e+00]
  Objective range  [1e+00, 1e+01]
  Bounds range     [1e+00, 1e+00]
  RHS range        [1e+00, 1e+01]
Presolve removed 19918 rows and 19325 columns
Presolve time: 0.04s
Presolved: 158 rows, 404 columns, 898 nonzeros
Variable types: 0 continuous, 404 integer (404 binary)
Found heuristic solution: objective 281.0000000

Root relaxation: objective 1.950000e+02, 170 iterations, 0.00 seconds

    Nodes    |    Current Node    |     Objective Bounds      |     Work
 Expl Unexpl |  Obj  Depth IntInf | Incumbent    BestBd   Gap | It/Node Time

*    0     0               0     195.0000000  195.00000  0.00%     -    0s

Explored 0 nodes (170 simplex iterations) in 0.05 seconds
Thread count was 8 (of 8 available processors)

Solution count 2: 195 281 

Optimal solution found (tolerance 1.00e-04)
Best objective 1.950000000000e+02, best bound 1.950000000000e+02, gap 0.0000%

Gurobi 8.1.0 (mac64, Python) logging started Sat Apr  6 21:24:12 2019

Academic license - for non-commercial use only
Optimize a model with 20076 rows, 19729 columns and 78916 nonzeros
Variable types: 0 continuous, 19729 integer (0 binary)
Coefficient statistics:
  Matrix range     [1e+00, 1e+00]
  Objective range  [1e+00, 1e+01]
  Bounds range     [1e+00, 1e+00]
  RHS range        [1e+00, 1e+01]
Presolve removed 19923 rows and 19333 columns
Presolve time: 0.04s
Presolved: 153 rows, 396 columns, 792 nonzeros
Variable types: 0 continuous, 396 integer (396 binary)
Found heuristic solution: objective 273.0000000

Root relaxation: objective 1.910000e+02, 173 iterations, 0.00 seconds

    Nodes    |    Current Node    |     Objective Bounds      |     Work
 Expl Unexpl |  Obj  Depth IntInf | Incumbent    BestBd   Gap | It/Node Time

*    0     0               0     191.0000000  191.00000  0.00%     -    0s

Explored 0 nodes (173 simplex iterations) in 0.06 seconds
Thread count was 8 (of 8 available processors)

Solution count 2: 191 273 

Optimal solution found (tolerance 1.00e-04)
Best objective 1.910000000000e+02, best bound 1.910000000000e+02, gap 0.0000%

Gurobi 8.1.0 (mac64, Python) logging started Sat Apr  6 21:53:19 2019

Academic license - for non-commercial use only
Optimize a model with 20076 rows, 19729 columns and 78916 nonzeros
Variable types: 0 continuous, 19729 integer (0 binary)
Coefficient statistics:
  Matrix range     [1e+00, 1e+00]
  Objective range  [1e+00, 1e+01]
  Bounds range     [1e+00, 1e+00]
  RHS range        [1e+00, 1e+01]
Presolve removed 19923 rows and 19333 columns
Presolve time: 0.03s
Presolved: 153 rows, 396 columns, 792 nonzeros
Variable types: 0 continuous, 396 integer (396 binary)
Found heuristic solution: objective 273.0000000

Root relaxation: objective 1.910000e+02, 173 iterations, 0.00 seconds

    Nodes    |    Current Node    |     Objective Bounds      |     Work
 Expl Unexpl |  Obj  Depth IntInf | Incumbent    BestBd   Gap | It/Node Time

*    0     0               0     191.0000000  191.00000  0.00%     -    0s

Explored 0 nodes (173 simplex iterations) in 0.05 seconds
Thread count was 8 (of 8 available processors)

Solution count 2: 191 273 

Optimal solution found (tolerance 1.00e-04)
Best objective 1.910000000000e+02, best bound 1.910000000000e+02, gap 0.0000%

Gurobi 8.1.0 (mac64, Python) logging started Sat Apr  6 21:55:14 2019

Academic license - for non-commercial use only
Optimize a model with 20076 rows, 19729 columns and 78916 nonzeros
Variable types: 0 continuous, 19729 integer (0 binary)
Coefficient statistics:
  Matrix range     [1e+00, 1e+00]
  Objective range  [1e+00, 1e+01]
  Bounds range     [1e+00, 1e+00]
  RHS range        [1e+00, 1e+01]
Presolve removed 19923 rows and 19333 columns
Presolve time: 0.04s
Presolved: 153 rows, 396 columns, 792 nonzeros
Variable types: 0 continuous, 396 integer (396 binary)
Found heuristic solution: objective 273.0000000

Root relaxation: objective 1.910000e+02, 173 iterations, 0.00 seconds

    Nodes    |    Current Node    |     Objective Bounds      |     Work
 Expl Unexpl |  Obj  Depth IntInf | Incumbent    BestBd   Gap | It/Node Time

*    0     0               0     191.0000000  191.00000  0.00%     -    0s

Explored 0 nodes (173 simplex iterations) in 0.06 seconds
Thread count was 8 (of 8 available processors)

Solution count 2: 191 273 

Optimal solution found (tolerance 1.00e-04)
Best objective 1.910000000000e+02, best bound 1.910000000000e+02, gap 0.0000%

Gurobi 8.1.0 (mac64, Python) logging started Sat Apr  6 21:56:57 2019

Academic license - for non-commercial use only
Optimize a model with 20076 rows, 19729 columns and 78916 nonzeros
Variable types: 0 continuous, 19729 integer (0 binary)
Coefficient statistics:
  Matrix range     [1e+00, 1e+00]
  Objective range  [1e+00, 1e+01]
  Bounds range     [1e+00, 1e+00]
  RHS range        [1e+00, 1e+01]
Presolve removed 19923 rows and 19333 columns
Presolve time: 0.04s
Presolved: 153 rows, 396 columns, 792 nonzeros
Variable types: 0 continuous, 396 integer (396 binary)
Found heuristic solution: objective 273.0000000

Root relaxation: objective 1.910000e+02, 173 iterations, 0.00 seconds

    Nodes    |    Current Node    |     Objective Bounds      |     Work
 Expl Unexpl |  Obj  Depth IntInf | Incumbent    BestBd   Gap | It/Node Time

*    0     0               0     191.0000000  191.00000  0.00%     -    0s

Explored 0 nodes (173 simplex iterations) in 0.05 seconds
Thread count was 8 (of 8 available processors)

Solution count 2: 191 273 

Optimal solution found (tolerance 1.00e-04)
Best objective 1.910000000000e+02, best bound 1.910000000000e+02, gap 0.0000%

Gurobi 8.1.0 (mac64, Python) logging started Sat Apr  6 21:59:27 2019

Academic license - for non-commercial use only
Optimize a model with 20076 rows, 19729 columns and 78916 nonzeros
Variable types: 0 continuous, 19729 integer (0 binary)
Coefficient statistics:
  Matrix range     [1e+00, 1e+00]
  Objective range  [1e+00, 1e+01]
  Bounds range     [1e+00, 1e+00]
  RHS range        [1e+00, 1e+01]
Presolve removed 19918 rows and 19325 columns
Presolve time: 0.04s
Presolved: 158 rows, 404 columns, 898 nonzeros
Variable types: 0 continuous, 404 integer (404 binary)
Found heuristic solution: objective 281.0000000

Root relaxation: objective 1.950000e+02, 170 iterations, 0.00 seconds

    Nodes    |    Current Node    |     Objective Bounds      |     Work
 Expl Unexpl |  Obj  Depth IntInf | Incumbent    BestBd   Gap | It/Node Time

*    0     0               0     195.0000000  195.00000  0.00%     -    0s

Explored 0 nodes (170 simplex iterations) in 0.05 seconds
Thread count was 8 (of 8 available processors)

Solution count 2: 195 281 

Optimal solution found (tolerance 1.00e-04)
Best objective 1.950000000000e+02, best bound 1.950000000000e+02, gap 0.0000%
